minizinc/sudoku_problems2/sudoku_p79.dzn
%
% sudoku_p79.dzn
% See http://www.hakank.org/minizinc/sudoku_gcc.mzn
% 
% This problem is problem 79 from
% Gecode's sudoku.cpp
% http://www.gecode.org/gecode-doc-latest/sudoku_8cpp-source.html
% 
x = array2d(1..n, 1..n, [   
% http://janko.at/Raetsel/Sudoku/591.a.htm
% 79
 10,  5,  7,  _,  _,  _,  8, 14,  4,  _,  _,  _,  _,  _,  _,  9,
  _,  4, 12,  8,  5,  _,  6,  _,  _,  _,  _,  9,  _, 14,  3, 11,
  _, 14,  1,  _,  _,  _,  3, 16,  6,  5,  7,  _,  _, 10, 12,  8,
  _,  _,  _, 15,  _,  1,  _,  9,  _,  8, 14, 10,  5,  _,  7,  _,
  _,  8,  _,  5,  _,  7,  _,  _,  _,  4, 15,  _,  _,  _,  2,  _,
  _,  _,  9,  3,  1,  6,  _,  _,  _,  _, 11, 16,  8,  _,  _,  _,
  _,  _, 14,  2, 10,  _,  _,  4,  _,  _,  _,  _,  _, 13,  9,  7,
 15,  _,  4,  _,  _,  _,  _,  8,  5,  6,  _,  _, 16,  1,  _,  3,
  6,  _,  8,  4,  _,  _, 14, 12, 11,  _,  _,  _,  _, 15,  _,  5,
  5, 15, 10,  _,  _,  _,  _,  _, 12,  _,  _,  6,  3,  7,  _,  _,
  _,  _,  _,  7, 15,  4,  _,  _,  _,  _,  1,  5,  2,  8,  _,  _,
  _,  2,  _,  _,  _,  3,  5,  _,  _,  _,  8,  _, 12,  _,  1,  _,
  _,  9,  _,  1,  3, 14,  2,  _,  8,  _,  4,  _, 10,  _,  _,  _,
 11, 13,  2,  _,  _, 16,  4, 15, 10, 12,  _,  _,  _,  9,  8,  _,
  8, 16,  5,  _, 12,  _,  _,  _,  _, 13,  _, 14, 15,  3, 11,  _,
  4,  _,  _,  _,  _,  _,  _,  5,  7, 11,  _,  _,  _,  2, 16,  6
]);

n = 16;


